sat
(:binary-propagations  2689
 :decisions            3452
 :del-clause           495
 :final-checks         4
 :max-generation       1
 :max-memory           32.31
 :memory               23.81
 :mk-bool-var          4392
 :mk-clause            902
 :mk-clause-binary     3393
 :num-allocs           195820671
 :num-checks           1
 :propagations         2963
 :quant-instantiations 499
 :restarts             3
 :rlimit-count         1516611
 :time                 0.18)
